40
    59    46    15    51    81    59    86    89    94    31    89    64    22    20    98   100    19    39    70    24    65    55    35    67    69    87     5    61    69     8    69    43    30    41    93    53    46    68    22    33
     3     9     5    10     8     7     8     4     3     9     8     4    10     3     3     8     1     5     5     3     6     4    10     1     3     6     6     1     9     5     6     5     9     9     5     6     7     1     2     6
  1567  1721  1314  1352  2126  1136  1462  1138  1789  1507  2085  2152  1967  1862  2260  1711  2058  1220  2164  1254  1929  2127  1977  1741  1146  1824  1435  2305  1458  2306  1332  2166  2106  1478  1777  1899  2321  1919  2390  1435
